% The data for the timetable problem

numSlots = 10;
timeSlots = ["8:50 - 9:00", 
			"9:00 - 9:10", 
			"9:10 - 9:20", 
			"9:20 - 9:30", 
			"9:30 - 9:40", 
			"9:40 - 9:50", 
			"9:50 - 10:00", 
			"10:00 - 10:10", 
			"10:10 - 10:20",
			"10:20 - 10:30"];


numTeachers = 13;	% the union of all teachers of all classes, including the "no" teacher '--'
teachers = ["--", "AA", "CJ", "NS", "PA", "JS", "MJ", "SK", "AP", "VS", "SWP", "SB", "RO"];
% teacher IDs 0		1	 2		3	 4		5	 6		7	 8		9	  10	11	  12

numSubjects = 8;	% the no of subjects in a class

% tenA_teachers = ["MJ", "AP", "RO", "VS", "AA", "NS", "PA", "CJ", "SK", "JS"];
% tenB_teachers = ["SB", "AP", "RO", "VS", "AA", "NS", "PA", "NS", "SK", "JS"];
% nineA_teachers = ["MJ", "AP", "RO", "VS", "AA", "NS", "PA", "NS", "SK", "JS"];
% nineB_teachers = ["SB", "SWP", "RO", "VS", "VS", "NS", "PA", "NS", "SK", "JS"];


tenA_teachers = {6, 8, 12, 9, 1, 3, 4, 2, 7, 5};
tenB_teachers = {11, 8, 12, 9, 1, 3, 4, 3, 7, 5};
nineA_teachers = {6, 8, 12, 9, 1, 3, 4, 3, 7, 5};
nineB_teachers = {11, 10, 12, 9, 9, 3, 4, 3, 7, 5};

/*
tenA_teachers = {1, 2, 3, 4, 6};
tenB_teachers = {1, 2, 4, 5, 6};
nineA_teachers = {1, 2, 3, 5, 8};
nineB_teachers = {1, 3, 4, 5, 6};
*/